;; sequence(s): A61802
;; terms: 2 7 15 27 45 69 99 135 177 229 289 357 435 519 609 709 821 941 1069 1207
;; small program: loop2(loop(compr(loop((1 - loop(x + x, x div 2, 1)) mod (1 + x), 1 - (x mod 2), x) - 2, y) + x, y, x), x, 2, 1 + x, x) + x
;; fast program: (((loop2(loop(compr(loop((1 - loop(x + x, (x - 1) div 2, 2)) mod (1 + x), 1 - (x mod 2), x) - 2, y) + x, y, x), 1 + y, 2, 1, x) + 2) + x) + x) - 2
(set-logic UFNIA)
(define-fun divf ((a Int) (b Int)) Int (ite (< 0 b) (div a b) (div (- a) (- b))))
(define-fun modf ((a Int) (b Int)) Int (ite (< 0 b) (mod a b) (- (mod (- a) (- b)))))
(declare-fun f4 (Int) Int)
(declare-fun g4 (Int) Int)
(declare-fun h4 () Int)
(declare-fun u4 (Int Int) Int)
(declare-fun v4 (Int) Int)
(declare-fun f3 (Int) Int)
(declare-fun g3 (Int) Int)
(declare-fun h3 (Int) Int)
(declare-fun u3 (Int Int) Int)
(declare-fun v3 (Int) Int)
(declare-fun f2 (Int) Int)
(declare-fun g2 (Int Int) Int)
(declare-fun t2 (Int) Int)
(declare-fun u2 (Int) Int)
(declare-fun v2 (Int Int) Int)
(declare-fun f1 (Int Int) Int)
(declare-fun g1 (Int Int) Int)
(declare-fun h1 (Int) Int)
(declare-fun u1 (Int Int) Int)
(declare-fun v1 (Int Int) Int)
(declare-fun f0 (Int Int) Int)
(declare-fun g0 (Int) Int)
(declare-fun h0 () Int)
(declare-fun i0 (Int) Int)
(declare-fun j0 (Int) Int)
(declare-fun u0 (Int Int Int) Int)
(declare-fun v0 (Int Int Int) Int)
(declare-fun w0 (Int) Int)
(declare-fun small (Int) Int)
(declare-fun f9 (Int) Int)
(declare-fun g9 (Int) Int)
(declare-fun h9 () Int)
(declare-fun u9 (Int Int) Int)
(declare-fun v9 (Int) Int)
(declare-fun f8 (Int) Int)
(declare-fun g8 (Int) Int)
(declare-fun h8 (Int) Int)
(declare-fun u8 (Int Int) Int)
(declare-fun v8 (Int) Int)
(declare-fun f7 (Int) Int)
(declare-fun g7 (Int Int) Int)
(declare-fun t7 (Int) Int)
(declare-fun u7 (Int) Int)
(declare-fun v7 (Int Int) Int)
(declare-fun f6 (Int Int) Int)
(declare-fun g6 (Int Int) Int)
(declare-fun h6 (Int) Int)
(declare-fun u6 (Int Int) Int)
(declare-fun v6 (Int Int) Int)
(declare-fun f5 (Int Int) Int)
(declare-fun g5 (Int Int) Int)
(declare-fun h5 () Int)
(declare-fun i5 () Int)
(declare-fun j5 (Int) Int)
(declare-fun u5 (Int Int Int) Int)
(declare-fun v5 (Int Int Int) Int)
(declare-fun w5 (Int) Int)
(declare-fun fast (Int) Int)
(assert (forall ((x Int)) (= (f4 x) (+ x x))))
(assert (forall ((x Int)) (= (g4 x) (divf x 2))))
(assert (= h4 1))
(assert (forall ((x Int) (y Int)) (= (u4 x y) (ite (<= x 0) y (f4 (u4 (- x 1) y))))))
(assert (forall ((x Int)) (= (v4 x) (u4 (g4 x) h4))))
(assert (forall ((x Int)) (= (f3 x) (modf (- 1 (v4 x)) (+ 1 x)))))
(assert (forall ((x Int)) (= (g3 x) (- 1 (modf x 2)))))
(assert (forall ((x Int)) (= (h3 x) x)))
(assert (forall ((x Int) (y Int)) (= (u3 x y) (ite (<= x 0) y (f3 (u3 (- x 1) y))))))
(assert (forall ((x Int)) (= (v3 x) (u3 (g3 x) (h3 x)))))
(assert (forall ((x Int)) (= (f2 x) (- (v3 x) 2))))
(assert (forall ((x Int) (y Int)) (= (g2 x y) y)))
(assert (forall ((x Int)) (= (t2 x) (ite (<= (f2 x) 0) x (t2 (+ x 1))))))
(assert (forall ((x Int)) (= (u2 x) (ite (<= x 0) (t2 0) (t2 (+ (u2 (- x 1)) 1))))))
(assert (forall ((x Int) (y Int)) (= (v2 x y) (u2 (g2 x y)))))
(assert (forall ((x Int) (y Int)) (= (f1 x y) (+ (v2 x y) x))))
(assert (forall ((x Int) (y Int)) (= (g1 x y) y)))
(assert (forall ((x Int)) (= (h1 x) x)))
(assert (forall ((x Int) (y Int)) (= (u1 x y) (ite (<= x 0) y (f1 (u1 (- x 1) y) x)))))
(assert (forall ((x Int) (y Int)) (= (v1 x y) (u1 (g1 x y) (h1 x)))))
(assert (forall ((x Int) (y Int)) (= (f0 x y) (v1 x y))))
(assert (forall ((x Int)) (= (g0 x) x)))
(assert (= h0 2))
(assert (forall ((x Int)) (= (i0 x) (+ 1 x))))
(assert (forall ((x Int)) (= (j0 x) x)))
(assert (forall ((x Int) (y Int) (z Int)) (= (u0 x y z) (ite (<= x 0) y (f0 (u0 (- x 1) y z) (v0 (- x 1) y z))))))
(assert (forall ((x Int) (y Int) (z Int)) (= (v0 x y z) (ite (<= x 0) z (g0 (u0 (- x 1) y z))))))
(assert (forall ((x Int)) (= (w0 x) (u0 h0 (i0 x) (j0 x)))))
(assert (forall ((x Int)) (= (small x) (+ (w0 x) x))))
(assert (forall ((x Int)) (= (f9 x) (+ x x))))
(assert (forall ((x Int)) (= (g9 x) (divf (- x 1) 2))))
(assert (= h9 2))
(assert (forall ((x Int) (y Int)) (= (u9 x y) (ite (<= x 0) y (f9 (u9 (- x 1) y))))))
(assert (forall ((x Int)) (= (v9 x) (u9 (g9 x) h9))))
(assert (forall ((x Int)) (= (f8 x) (modf (- 1 (v9 x)) (+ 1 x)))))
(assert (forall ((x Int)) (= (g8 x) (- 1 (modf x 2)))))
(assert (forall ((x Int)) (= (h8 x) x)))
(assert (forall ((x Int) (y Int)) (= (u8 x y) (ite (<= x 0) y (f8 (u8 (- x 1) y))))))
(assert (forall ((x Int)) (= (v8 x) (u8 (g8 x) (h8 x)))))
(assert (forall ((x Int)) (= (f7 x) (- (v8 x) 2))))
(assert (forall ((x Int) (y Int)) (= (g7 x y) y)))
(assert (forall ((x Int)) (= (t7 x) (ite (<= (f7 x) 0) x (t7 (+ x 1))))))
(assert (forall ((x Int)) (= (u7 x) (ite (<= x 0) (t7 0) (t7 (+ (u7 (- x 1)) 1))))))
(assert (forall ((x Int) (y Int)) (= (v7 x y) (u7 (g7 x y)))))
(assert (forall ((x Int) (y Int)) (= (f6 x y) (+ (v7 x y) x))))
(assert (forall ((x Int) (y Int)) (= (g6 x y) y)))
(assert (forall ((x Int)) (= (h6 x) x)))
(assert (forall ((x Int) (y Int)) (= (u6 x y) (ite (<= x 0) y (f6 (u6 (- x 1) y) x)))))
(assert (forall ((x Int) (y Int)) (= (v6 x y) (u6 (g6 x y) (h6 x)))))
(assert (forall ((x Int) (y Int)) (= (f5 x y) (v6 x y))))
(assert (forall ((x Int) (y Int)) (= (g5 x y) (+ 1 y))))
(assert (= h5 2))
(assert (= i5 1))
(assert (forall ((x Int)) (= (j5 x) x)))
(assert (forall ((x Int) (y Int) (z Int)) (= (u5 x y z) (ite (<= x 0) y (f5 (u5 (- x 1) y z) (v5 (- x 1) y z))))))
(assert (forall ((x Int) (y Int) (z Int)) (= (v5 x y z) (ite (<= x 0) z (g5 (u5 (- x 1) y z) (v5 (- x 1) y z))))))
(assert (forall ((x Int)) (= (w5 x) (u5 h5 i5 (j5 x)))))
(assert (forall ((x Int)) (= (fast x) (- (+ (+ (+ (w5 x) 2) x) x) 2))))
(assert (exists ((c Int)) (and (>= c 0) (not (= (small c) (fast c))))))
(check-sat)
